s td 45 6 50
b 1 9 10
b 2 41 42
b 3 1 2 12
b 4 2 3 12
b 5 3 4 5
b 6 5 6 7
b 7 7 8 9
b 8 7 9 20
b 9 11 12 22
b 10 7 19 20
b 11 21 22 32
b 12 19 29 30
b 13 31 32 42
b 14 29 39 40
b 15 32 42 43
b 16 32 43 44
b 17 44 45 46
b 18 46 47 48
b 19 48 49 50
b 20 39 48 50
b 21 5 7 18 19
b 22 3 5 15 24 36 46
b 23 3 15 22 24 36 46
b 24 3 13 15 22 24
b 25 3 12 13 22
b 26 3 13 14 15
b 27 22 24 34 36 46
b 28 22 23 24 34
b 29 22 34 44 46
b 30 22 33 34 44
b 31 34 35 36 46
b 32 5 15 24 27 36 46
b 33 5 15 27 36 39 46
b 34 5 15 27 29 39
b 35 5 15 17 27 29
b 36 5 15 16 17
b 37 5 17 19 29
b 38 5 17 18 19
b 39 17 27 28 29
b 40 27 36 37 39 46
b 41 27 37 38 39
b 42 37 39 46 48
b 43 15 24 26 27 36
b 44 24 25 26 36
b 45 22 32 33 44
1 8
2 15
3 4
4 25
5 22
6 21
7 8
8 10
9 25
10 21
11 45
12 37
13 15
14 34
15 16
16 45
17 29
18 42
19 20
20 42
21 38
22 23
22 32
23 24
23 27
24 25
24 26
27 28
27 29
27 31
29 30
30 45
32 33
32 43
33 34
33 40
34 35
35 36
35 37
35 39
37 38
40 41
40 42
43 44
